2647 2147 0 499 497 495 487 486 484 482 481 477 471 466 455 444 442 440 436 434 427 426 424 417 415 410 408 406 403 398 395 392 390 387 384 377 376 375 361 359 354 353 351 345 341 338 337 336 335 331 322 317 307 303 300 299 298 297 295 294 293 292 291 282 281 278 274 272 271 265 258 255 253 251 248 243 240 239 236 235 231 227 224 222 217 215 214 209 207 205 191 186 181 179 178 176 175 174 167 162 152 148 142 137 132 131 129 126 120 113 112 108 107 101 89 78 75 73 56 52 50 36 23 19 12 9 5 4 2 